###############################################################################

# interactions between pairs

pair_style hybrid lj/charmm/coul/long 10.0 14.0 lj/cut 10.0

pair_coeff 1 1 lj/cut  0.06600  3.50000  # 1 pair: CH3 - CH3
pair_coeff 1 2 lj/cut  0.06600  3.50000  # 2 pair: CH3 - CH2
pair_coeff 1 3 lj/cut  0.04450  2.95804  # 3 pair: CH3 - HC
pair_coeff 1 4 lj/cut  0.10126  3.32881  # 4 pair: CH3 - O
pair_coeff 1 5 lj/cut  0.00000  0.00000  # 5 pair: CH3 - H
pair_coeff 2 2 lj/cut  0.06600  3.50000  # 6 pair: CH2 - CH2
pair_coeff 2 3 lj/cut  0.04450  2.95804  # 7 pair: CH2 - HC
pair_coeff 2 4 lj/cut  0.10126  3.32881  # 8 pair: CH2 - O
pair_coeff 2 5 lj/cut  0.00000  0.00000  # 9 pair: CH2 - H
pair_coeff 3 3 lj/cut  0.03000  2.50000  # 10 pair: HC - HC
pair_coeff 3 4 lj/cut  0.06827  2.81336  # 11 pair: HC - O
pair_coeff 3 5 lj/cut  0.00000  0.00000  # 12 pair: HC - H
pair_coeff 4 4 lj/charmm/coul/long  0.15535  3.16600  # 13 pair: O - O
pair_coeff 4 5 lj/charmm/coul/long  0.00000  0.00000  # 14 pair: O - H
pair_coeff 5 5 lj/charmm/coul/long  0.00000  0.00000  # 15 pair: H - H

###############################################################################

# coefficents for bonds interactions

bond_style hybrid harmonic

bond_coeff 1 harmonic  268.00000  1.52900 # bond_coeff for CH3-CH2 (name: CH2-CH3)
bond_coeff 2 harmonic  340.00000  1.09000 # bond_coeff for CH3-HC (name: HC-CH)
bond_coeff 3 harmonic  600.00000  1.00000 # bond_coeff for O-H (name: H-O)

###############################################################################

# coefficents for angles interactions

angle_style hybrid harmonic

angle_coeff 1 harmonic  58.35000  112.70000 # angle_coeff for CH3-CH2-CH2 (name: CH-CH-CH)
angle_coeff 2 harmonic  33.00000  107.80000 # angle_coeff for HC-CH3-HC (name: HC-CH-HC)
angle_coeff 3 harmonic  37.50000  110.70000 # angle_coeff for CH3-CH2-HC (name: CH-CH-HC)
angle_coeff 4 harmonic  75.00000  109.47000 # angle_coeff for H-O-H (name: H-O-H)

###############################################################################

# coefficents for dihedrals interactions

dihedral_style hybrid opls

dihedral_coeff 1 opls  1.74000 -0.15700  0.27900  0.00000 # dihedral_coeff for CH3-CH2-CH2-CH2 (name: CH-CH-CH-CH)
dihedral_coeff 2 opls  0.00000  0.00000  0.36600  0.00000 # dihedral_coeff for CH3-CH2-CH2-HC (name: CH-CH-CH-HC)
dihedral_coeff 3 opls  0.00000  0.00000  0.31800  0.00000 # dihedral_coeff for HC-CH3-CH2-HC (name: HC-CH-CH-HC)

